(declare-fun e () String)
(declare-fun g () String)
(declare-fun b () String)
(declare-fun d () String)
(declare-fun f () String)
(declare-fun a () String)
(assert (= f (str.++ "f" d "h" a b "h")))
(assert (= "afh" (str.++ d g)))
(assert (= (str.++ e e) b))

(check-sat)
